Version identifier: 22.1.0.0 | 2022-03-09 | 1a383f8ce
CPXPARAM_Read_DataCheck                          1
1 of 1 MIP starts provided solutions.
MIP start 'm1' defined initial solution with objective 41.0000.
Tried aggregator 4 times.
MIP Presolve eliminated 26760 rows and 3685 columns.
MIP Presolve modified 456 coefficients.
Aggregator did 23872 substitutions.
Reduced MIP has 3884 rows, 24595 columns, and 53081 nonzeros.
Reduced MIP has 24571 binaries, 24 generals, 0 SOSs, and 0 indicators.
Presolve time = 0.22 sec. (255.27 ticks)
Tried aggregator 1 time.
Detecting symmetries...
Reduced MIP has 3884 rows, 24595 columns, and 53081 nonzeros.
Reduced MIP has 24571 binaries, 24 generals, 0 SOSs, and 0 indicators.
Presolve time = 0.04 sec. (35.94 ticks)
Probing fixed 37 vars, tightened 0 bounds.
Probing time = 0.07 sec. (13.11 ticks)
Clique table members: 50045.
MIP emphasis: balance optimality and feasibility.
MIP search method: dynamic search.
Parallel mode: deterministic, using up to 8 threads.
Root relaxation solution time = 0.29 sec. (203.74 ticks)

        Nodes                                         Cuts/
   Node  Left     Objective  IInf  Best Integer    Best Bound    ItCnt     Gap

*     0+    0                           41.0000        0.0000           100.00%
      0     0       24.4413  3133       41.0000       24.4413     3582   40.39%
      0     0        cutoff             41.0000                   3604    0.00%
Elapsed time = 1.77 sec. (1195.72 ticks, tree = 0.01 MB, solutions = 1)

Zero-half cuts applied:  22
Gomory fractional cuts applied:  17

Root node processing (before b&c):
  Real time             =    1.77 sec. (1197.48 ticks)
Parallel b&c, 8 threads:
  Real time             =    0.00 sec. (0.00 ticks)
  Sync time (average)   =    0.00 sec.
  Wait time (average)   =    0.00 sec.
                          ------------
Total (root+branch&cut) =    1.77 sec. (1197.48 ticks)
